c graph colorability of graph:
c .
c
c Generated with `cnfgen`
c (C) 2012-2019 Massimo Lauria <massimo.lauria@uniroma1.it>
c https://massimolauria.net/cnfgen
c
c COMMAND LINE: cnfgen --seed 1 -o ./kcolor/kcolor.gnm125-200.s1.k3.cnf kcolor --gnm 125 200 --savegraph ./kcolor/kcolor.gnm125-200.s1.graph --graphformat dot 3
c
p cnf 375 1100
1 2 3 0
-1 -2 0
-1 -3 0
-2 -3 0
4 5 6 0
-4 -5 0
-4 -6 0
-5 -6 0
7 8 9 0
-7 -8 0
-7 -9 0
-8 -9 0
10 11 12 0
-10 -11 0
-10 -12 0
-11 -12 0
13 14 15 0
-13 -14 0
-13 -15 0
-14 -15 0
16 17 18 0
-16 -17 0
-16 -18 0
-17 -18 0
19 20 21 0
-19 -20 0
-19 -21 0
-20 -21 0
22 23 24 0
-22 -23 0
-22 -24 0
-23 -24 0
25 26 27 0
-25 -26 0
-25 -27 0
-26 -27 0
28 29 30 0
-28 -29 0
-28 -30 0
-29 -30 0
31 32 33 0
-31 -32 0
-31 -33 0
-32 -33 0
34 35 36 0
-34 -35 0
-34 -36 0
-35 -36 0
37 38 39 0
-37 -38 0
-37 -39 0
-38 -39 0
40 41 42 0
-40 -41 0
-40 -42 0
-41 -42 0
43 44 45 0
-43 -44 0
-43 -45 0
-44 -45 0
46 47 48 0
-46 -47 0
-46 -48 0
-47 -48 0
49 50 51 0
-49 -50 0
-49 -51 0
-50 -51 0
52 53 54 0
-52 -53 0
-52 -54 0
-53 -54 0
55 56 57 0
-55 -56 0
-55 -57 0
-56 -57 0
58 59 60 0
-58 -59 0
-58 -60 0
-59 -60 0
61 62 63 0
-61 -62 0
-61 -63 0
-62 -63 0
64 65 66 0
-64 -65 0
-64 -66 0
-65 -66 0
67 68 69 0
-67 -68 0
-67 -69 0
-68 -69 0
70 71 72 0
-70 -71 0
-70 -72 0
-71 -72 0
73 74 75 0
-73 -74 0
-73 -75 0
-74 -75 0
76 77 78 0
-76 -77 0
-76 -78 0
-77 -78 0
79 80 81 0
-79 -80 0
-79 -81 0
-80 -81 0
82 83 84 0
-82 -83 0
-82 -84 0
-83 -84 0
85 86 87 0
-85 -86 0
-85 -87 0
-86 -87 0
88 89 90 0
-88 -89 0
-88 -90 0
-89 -90 0
91 92 93 0
-91 -92 0
-91 -93 0
-92 -93 0
94 95 96 0
-94 -95 0
-94 -96 0
-95 -96 0
97 98 99 0
-97 -98 0
-97 -99 0
-98 -99 0
100 101 102 0
-100 -101 0
-100 -102 0
-101 -102 0
103 104 105 0
-103 -104 0
-103 -105 0
-104 -105 0
106 107 108 0
-106 -107 0
-106 -108 0
-107 -108 0
109 110 111 0
-109 -110 0
-109 -111 0
-110 -111 0
112 113 114 0
-112 -113 0
-112 -114 0
-113 -114 0
115 116 117 0
-115 -116 0
-115 -117 0
-116 -117 0
118 119 120 0
-118 -119 0
-118 -120 0
-119 -120 0
121 122 123 0
-121 -122 0
-121 -123 0
-122 -123 0
124 125 126 0
-124 -125 0
-124 -126 0
-125 -126 0
127 128 129 0
-127 -128 0
-127 -129 0
-128 -129 0
130 131 132 0
-130 -131 0
-130 -132 0
-131 -132 0
133 134 135 0
-133 -134 0
-133 -135 0
-134 -135 0
136 137 138 0
-136 -137 0
-136 -138 0
-137 -138 0
139 140 141 0
-139 -140 0
-139 -141 0
-140 -141 0
142 143 144 0
-142 -143 0
-142 -144 0
-143 -144 0
145 146 147 0
-145 -146 0
-145 -147 0
-146 -147 0
148 149 150 0
-148 -149 0
-148 -150 0
-149 -150 0
151 152 153 0
-151 -152 0
-151 -153 0
-152 -153 0
154 155 156 0
-154 -155 0
-154 -156 0
-155 -156 0
157 158 159 0
-157 -158 0
-157 -159 0
-158 -159 0
160 161 162 0
-160 -161 0
-160 -162 0
-161 -162 0
163 164 165 0
-163 -164 0
-163 -165 0
-164 -165 0
166 167 168 0
-166 -167 0
-166 -168 0
-167 -168 0
169 170 171 0
-169 -170 0
-169 -171 0
-170 -171 0
172 173 174 0
-172 -173 0
-172 -174 0
-173 -174 0
175 176 177 0
-175 -176 0
-175 -177 0
-176 -177 0
178 179 180 0
-178 -179 0
-178 -180 0
-179 -180 0
181 182 183 0
-181 -182 0
-181 -183 0
-182 -183 0
184 185 186 0
-184 -185 0
-184 -186 0
-185 -186 0
187 188 189 0
-187 -188 0
-187 -189 0
-188 -189 0
190 191 192 0
-190 -191 0
-190 -192 0
-191 -192 0
193 194 195 0
-193 -194 0
-193 -195 0
-194 -195 0
196 197 198 0
-196 -197 0
-196 -198 0
-197 -198 0
199 200 201 0
-199 -200 0
-199 -201 0
-200 -201 0
202 203 204 0
-202 -203 0
-202 -204 0
-203 -204 0
205 206 207 0
-205 -206 0
-205 -207 0
-206 -207 0
208 209 210 0
-208 -209 0
-208 -210 0
-209 -210 0
211 212 213 0
-211 -212 0
-211 -213 0
-212 -213 0
214 215 216 0
-214 -215 0
-214 -216 0
-215 -216 0
217 218 219 0
-217 -218 0
-217 -219 0
-218 -219 0
220 221 222 0
-220 -221 0
-220 -222 0
-221 -222 0
223 224 225 0
-223 -224 0
-223 -225 0
-224 -225 0
226 227 228 0
-226 -227 0
-226 -228 0
-227 -228 0
229 230 231 0
-229 -230 0
-229 -231 0
-230 -231 0
232 233 234 0
-232 -233 0
-232 -234 0
-233 -234 0
235 236 237 0
-235 -236 0
-235 -237 0
-236 -237 0
238 239 240 0
-238 -239 0
-238 -240 0
-239 -240 0
241 242 243 0
-241 -242 0
-241 -243 0
-242 -243 0
244 245 246 0
-244 -245 0
-244 -246 0
-245 -246 0
247 248 249 0
-247 -248 0
-247 -249 0
-248 -249 0
250 251 252 0
-250 -251 0
-250 -252 0
-251 -252 0
253 254 255 0
-253 -254 0
-253 -255 0
-254 -255 0
256 257 258 0
-256 -257 0
-256 -258 0
-257 -258 0
259 260 261 0
-259 -260 0
-259 -261 0
-260 -261 0
262 263 264 0
-262 -263 0
-262 -264 0
-263 -264 0
265 266 267 0
-265 -266 0
-265 -267 0
-266 -267 0
268 269 270 0
-268 -269 0
-268 -270 0
-269 -270 0
271 272 273 0
-271 -272 0
-271 -273 0
-272 -273 0
274 275 276 0
-274 -275 0
-274 -276 0
-275 -276 0
277 278 279 0
-277 -278 0
-277 -279 0
-278 -279 0
280 281 282 0
-280 -281 0
-280 -282 0
-281 -282 0
283 284 285 0
-283 -284 0
-283 -285 0
-284 -285 0
286 287 288 0
-286 -287 0
-286 -288 0
-287 -288 0
289 290 291 0
-289 -290 0
-289 -291 0
-290 -291 0
292 293 294 0
-292 -293 0
-292 -294 0
-293 -294 0
295 296 297 0
-295 -296 0
-295 -297 0
-296 -297 0
298 299 300 0
-298 -299 0
-298 -300 0
-299 -300 0
301 302 303 0
-301 -302 0
-301 -303 0
-302 -303 0
304 305 306 0
-304 -305 0
-304 -306 0
-305 -306 0
307 308 309 0
-307 -308 0
-307 -309 0
-308 -309 0
310 311 312 0
-310 -311 0
-310 -312 0
-311 -312 0
313 314 315 0
-313 -314 0
-313 -315 0
-314 -315 0
316 317 318 0
-316 -317 0
-316 -318 0
-317 -318 0
319 320 321 0
-319 -320 0
-319 -321 0
-320 -321 0
322 323 324 0
-322 -323 0
-322 -324 0
-323 -324 0
325 326 327 0
-325 -326 0
-325 -327 0
-326 -327 0
328 329 330 0
-328 -329 0
-328 -330 0
-329 -330 0
331 332 333 0
-331 -332 0
-331 -333 0
-332 -333 0
334 335 336 0
-334 -335 0
-334 -336 0
-335 -336 0
337 338 339 0
-337 -338 0
-337 -339 0
-338 -339 0
340 341 342 0
-340 -341 0
-340 -342 0
-341 -342 0
343 344 345 0
-343 -344 0
-343 -345 0
-344 -345 0
346 347 348 0
-346 -347 0
-346 -348 0
-347 -348 0
349 350 351 0
-349 -350 0
-349 -351 0
-350 -351 0
352 353 354 0
-352 -353 0
-352 -354 0
-353 -354 0
355 356 357 0
-355 -356 0
-355 -357 0
-356 -357 0
358 359 360 0
-358 -359 0
-358 -360 0
-359 -360 0
361 362 363 0
-361 -362 0
-361 -363 0
-362 -363 0
364 365 366 0
-364 -365 0
-364 -366 0
-365 -366 0
367 368 369 0
-367 -368 0
-367 -369 0
-368 -369 0
370 371 372 0
-370 -371 0
-370 -372 0
-371 -372 0
373 374 375 0
-373 -374 0
-373 -375 0
-374 -375 0
-1 -13 0
-2 -14 0
-3 -15 0
-1 -112 0
-2 -113 0
-3 -114 0
-1 -199 0
-2 -200 0
-3 -201 0
-1 -208 0
-2 -209 0
-3 -210 0
-1 -316 0
-2 -317 0
-3 -318 0
-4 -172 0
-5 -173 0
-6 -174 0
-4 -190 0
-5 -191 0
-6 -192 0
-10 -109 0
-11 -110 0
-12 -111 0
-10 -133 0
-11 -134 0
-12 -135 0
-10 -181 0
-11 -182 0
-12 -183 0
-10 -193 0
-11 -194 0
-12 -195 0
-10 -358 0
-11 -359 0
-12 -360 0
-10 -367 0
-11 -368 0
-12 -369 0
-13 -220 0
-14 -221 0
-15 -222 0
-16 -19 0
-17 -20 0
-18 -21 0
-16 -91 0
-17 -92 0
-18 -93 0
-16 -256 0
-17 -257 0
-18 -258 0
-16 -262 0
-17 -263 0
-18 -264 0
-16 -268 0
-17 -269 0
-18 -270 0
-19 -58 0
-20 -59 0
-21 -60 0
-19 -367 0
-20 -368 0
-21 -369 0
-22 -31 0
-23 -32 0
-24 -33 0
-22 -34 0
-23 -35 0
-24 -36 0
-22 -235 0
-23 -236 0
-24 -237 0
-25 -76 0
-26 -77 0
-27 -78 0
-25 -304 0
-26 -305 0
-27 -306 0
-25 -328 0
-26 -329 0
-27 -330 0
-28 -118 0
-29 -119 0
-30 -120 0
-28 -142 0
-29 -143 0
-30 -144 0
-28 -205 0
-29 -206 0
-30 -207 0
-28 -253 0
-29 -254 0
-30 -255 0
-31 -94 0
-32 -95 0
-33 -96 0
-31 -100 0
-32 -101 0
-33 -102 0
-31 -211 0
-32 -212 0
-33 -213 0
-31 -220 0
-32 -221 0
-33 -222 0
-31 -232 0
-32 -233 0
-33 -234 0
-31 -250 0
-32 -251 0
-33 -252 0
-31 -328 0
-32 -329 0
-33 -330 0
-31 -364 0
-32 -365 0
-33 -366 0
-34 -55 0
-35 -56 0
-36 -57 0
-34 -178 0
-35 -179 0
-36 -180 0
-34 -193 0
-35 -194 0
-36 -195 0
-37 -265 0
-38 -266 0
-39 -267 0
-37 -343 0
-38 -344 0
-39 -345 0
-37 -352 0
-38 -353 0
-39 -354 0
-40 -106 0
-41 -107 0
-42 -108 0
-40 -223 0
-41 -224 0
-42 -225 0
-43 -106 0
-44 -107 0
-45 -108 0
-43 -166 0
-44 -167 0
-45 -168 0
-43 -175 0
-44 -176 0
-45 -177 0
-43 -358 0
-44 -359 0
-45 -360 0
-46 -64 0
-47 -65 0
-48 -66 0
-46 -97 0
-47 -98 0
-48 -99 0
-46 -355 0
-47 -356 0
-48 -357 0
-49 -259 0
-50 -260 0
-51 -261 0
-52 -73 0
-53 -74 0
-54 -75 0
-52 -103 0
-53 -104 0
-54 -105 0
-52 -259 0
-53 -260 0
-54 -261 0
-52 -340 0
-53 -341 0
-54 -342 0
-55 -85 0
-56 -86 0
-57 -87 0
-55 -118 0
-56 -119 0
-57 -120 0
-55 -172 0
-56 -173 0
-57 -174 0
-55 -178 0
-56 -179 0
-57 -180 0
-55 -277 0
-56 -278 0
-57 -279 0
-55 -307 0
-56 -308 0
-57 -309 0
-55 -328 0
-56 -329 0
-57 -330 0
-55 -334 0
-56 -335 0
-57 -336 0
-58 -130 0
-59 -131 0
-60 -132 0
-58 -346 0
-59 -347 0
-60 -348 0
-58 -364 0
-59 -365 0
-60 -366 0
-61 -82 0
-62 -83 0
-63 -84 0
-64 -118 0
-65 -119 0
-66 -120 0
-67 -259 0
-68 -260 0
-69 -261 0
-67 -268 0
-68 -269 0
-69 -270 0
-70 -124 0
-71 -125 0
-72 -126 0
-70 -187 0
-71 -188 0
-72 -189 0
-70 -316 0
-71 -317 0
-72 -318 0
-76 -163 0
-77 -164 0
-78 -165 0
-76 -199 0
-77 -200 0
-78 -201 0
-76 -337 0
-77 -338 0
-78 -339 0
-76 -370 0
-77 -371 0
-78 -372 0
-79 -127 0
-80 -128 0
-81 -129 0
-79 -136 0
-80 -137 0
-81 -138 0
-79 -226 0
-80 -227 0
-81 -228 0
-79 -259 0
-80 -260 0
-81 -261 0
-79 -280 0
-80 -281 0
-81 -282 0
-82 -364 0
-83 -365 0
-84 -366 0
-85 -103 0
-86 -104 0
-87 -105 0
-85 -223 0
-86 -224 0
-87 -225 0
-85 -310 0
-86 -311 0
-87 -312 0
-85 -373 0
-86 -374 0
-87 -375 0
-88 -262 0
-89 -263 0
-90 -264 0
-88 -313 0
-89 -314 0
-90 -315 0
-91 -178 0
-92 -179 0
-93 -180 0
-91 -286 0
-92 -287 0
-93 -288 0
-94 -241 0
-95 -242 0
-96 -243 0
-94 -256 0
-95 -257 0
-96 -258 0
-94 -325 0
-95 -326 0
-96 -327 0
-97 -244 0
-98 -245 0
-99 -246 0
-100 -364 0
-101 -365 0
-102 -366 0
-103 -199 0
-104 -200 0
-105 -201 0
-106 -244 0
-107 -245 0
-108 -246 0
-109 -274 0
-110 -275 0
-111 -276 0
-112 -223 0
-113 -224 0
-114 -225 0
-112 -325 0
-113 -326 0
-114 -327 0
-112 -346 0
-113 -347 0
-114 -348 0
-115 -193 0
-116 -194 0
-117 -195 0
-115 -199 0
-116 -200 0
-117 -201 0
-115 -202 0
-116 -203 0
-117 -204 0
-115 -274 0
-116 -275 0
-117 -276 0
-118 -214 0
-119 -215 0
-120 -216 0
-118 -301 0
-119 -302 0
-120 -303 0
-121 -247 0
-122 -248 0
-123 -249 0
-124 -157 0
-125 -158 0
-126 -159 0
-124 -199 0
-125 -200 0
-126 -201 0
-124 -235 0
-125 -236 0
-126 -237 0
-124 -280 0
-125 -281 0
-126 -282 0
-124 -358 0
-125 -359 0
-126 -360 0
-127 -178 0
-128 -179 0
-129 -180 0
-130 -271 0
-131 -272 0
-132 -273 0
-130 -286 0
-131 -287 0
-132 -288 0
-130 -337 0
-131 -338 0
-132 -339 0
-133 -139 0
-134 -140 0
-135 -141 0
-133 -241 0
-134 -242 0
-135 -243 0
-133 -280 0
-134 -281 0
-135 -282 0
-136 -307 0
-137 -308 0
-138 -309 0
-139 -202 0
-140 -203 0
-141 -204 0
-139 -247 0
-140 -248 0
-141 -249 0
-142 -199 0
-143 -200 0
-144 -201 0
-142 -223 0
-143 -224 0
-144 -225 0
-142 -226 0
-143 -227 0
-144 -228 0
-145 -328 0
-146 -329 0
-147 -330 0
-148 -316 0
-149 -317 0
-150 -318 0
-151 -163 0
-152 -164 0
-153 -165 0
-151 -229 0
-152 -230 0
-153 -231 0
-151 -295 0
-152 -296 0
-153 -297 0
-157 -334 0
-158 -335 0
-159 -336 0
-157 -352 0
-158 -353 0
-159 -354 0
-160 -280 0
-161 -281 0
-162 -282 0
-160 -322 0
-161 -323 0
-162 -324 0
-163 -199 0
-164 -200 0
-165 -201 0
-163 -280 0
-164 -281 0
-165 -282 0
-169 -241 0
-170 -242 0
-171 -243 0
-169 -271 0
-170 -272 0
-171 -273 0
-175 -268 0
-176 -269 0
-177 -270 0
-178 -247 0
-179 -248 0
-180 -249 0
-178 -262 0
-179 -263 0
-180 -264 0
-181 -277 0
-182 -278 0
-183 -279 0
-181 -346 0
-182 -347 0
-183 -348 0
-190 -256 0
-191 -257 0
-192 -258 0
-190 -289 0
-191 -290 0
-192 -291 0
-193 -199 0
-194 -200 0
-195 -201 0
-193 -211 0
-194 -212 0
-195 -213 0
-193 -268 0
-194 -269 0
-195 -270 0
-193 -289 0
-194 -290 0
-195 -291 0
-193 -322 0
-194 -323 0
-195 -324 0
-193 -340 0
-194 -341 0
-195 -342 0
-199 -352 0
-200 -353 0
-201 -354 0
-205 -250 0
-206 -251 0
-207 -252 0
-205 -313 0
-206 -314 0
-207 -315 0
-211 -241 0
-212 -242 0
-213 -243 0
-211 -292 0
-212 -293 0
-213 -294 0
-211 -349 0
-212 -350 0
-213 -351 0
-214 -229 0
-215 -230 0
-216 -231 0
-223 -250 0
-224 -251 0
-225 -252 0
-223 -286 0
-224 -287 0
-225 -288 0
-223 -325 0
-224 -326 0
-225 -327 0
-223 -340 0
-224 -341 0
-225 -342 0
-226 -334 0
-227 -335 0
-228 -336 0
-226 -373 0
-227 -374 0
-228 -375 0
-229 -238 0
-230 -239 0
-231 -240 0
-229 -304 0
-230 -305 0
-231 -306 0
-232 -346 0
-233 -347 0
-234 -348 0
-241 -295 0
-242 -296 0
-243 -297 0
-241 -301 0
-242 -302 0
-243 -303 0
-247 -352 0
-248 -353 0
-249 -354 0
-250 -253 0
-251 -254 0
-252 -255 0
-256 -268 0
-257 -269 0
-258 -270 0
-256 -289 0
-257 -290 0
-258 -291 0
-256 -358 0
-257 -359 0
-258 -360 0
-262 -298 0
-263 -299 0
-264 -300 0
-262 -325 0
-263 -326 0
-264 -327 0
-268 -307 0
-269 -308 0
-270 -309 0
-268 -310 0
-269 -311 0
-270 -312 0
-268 -316 0
-269 -317 0
-270 -318 0
-274 -310 0
-275 -311 0
-276 -312 0
-274 -340 0
-275 -341 0
-276 -342 0
-277 -280 0
-278 -281 0
-279 -282 0
-286 -301 0
-287 -302 0
-288 -303 0
-286 -337 0
-287 -338 0
-288 -339 0
-289 -331 0
-290 -332 0
-291 -333 0
-295 -331 0
-296 -332 0
-297 -333 0
-304 -322 0
-305 -323 0
-306 -324 0
-319 -322 0
-320 -323 0
-321 -324 0
-322 -325 0
-323 -326 0
-324 -327 0
-325 -361 0
-326 -362 0
-327 -363 0
-328 -367 0
-329 -368 0
-330 -369 0
-331 -355 0
-332 -356 0
-333 -357 0
-334 -352 0
-335 -353 0
-336 -354 0
-337 -358 0
-338 -359 0
-339 -360 0
